myproject/instances/20nodes/rnd35_20.tsp
NAME : rnd35_20.tsp
TYPE : TSP
DIMENSION : 20
EDGE_WEIGHT_TYPE : EUC_2D
NODE_COORD_SECTION
1 280 459
2 822 697
3 699 253
4 765 695
5 397 982
6 336 311
7 950 240
8 989 20
9 132 302
10 454 512
11 480 406
12 247 823
13 448 198
14 611 328
15 585 59
16 274 208
17 786 987
18 511 908
19 614 178
20 995 488
